Normalized Data/p10_1030_tsplib0_normalized_split0.vrp
NAME:p10_1030_tsplib0_NORMALIZED_split
BEST_KNOWN: 0
COMMENT: 0
DIMENSION: 705
CAPACITY: 100
EDGE_WEIGHT_FORMAT: FUNCTION
EDGE_WEIGHT_TYPE: EXACT_2D
NODE_COORD_SECTION
1 0.00000 0.00000
2 -13 -13
3 -13 -13
4 -13 -13
5 -13 -13
6 1 -9
7 1 -9
8 1 -9
9 1 -9
10 -14 10
11 -14 10
12 -14 10
13 -14 10
14 -14 10
15 10 0
16 10 0
17 20 -15
18 20 -15
19 20 -15
20 20 -15
21 20 -15
22 -2 -1
23 -2 -1
24 -2 -1
25 -2 -1
26 15 15
27 15 15
28 15 15
29 15 15
30 15 15
31 15 15
32 20 10
33 20 10
34 20 10
35 -9 24
36 -9 24
37 -9 24
38 -9 24
39 -9 24
40 5 31
41 20 30
42 20 30
43 20 30
44 0 16
45 0 16
46 0 16
47 0 16
48 27 0
49 27 0
50 27 0
51 27 0
52 27 0
53 27 0
54 27 22
55 27 -11
56 27 -11
57 27 -11
58 27 -11
59 27 -11
60 -14 1
61 -14 1
62 -2 9
63 -2 9
64 -26 21
65 27 13
66 27 13
67 27 13
68 27 13
69 31 -21
70 9 -22
71 9 -22
72 9 -22
73 -9 -22
74 -9 -22
75 -9 -22
76 -24 -7
77 -24 -7
78 -24 -7
79 -24 -7
80 -28 8
81 -28 8
82 -18 29
83 -18 29
84 6 11
85 6 11
86 6 11
87 6 11
88 6 11
89 20 -1
90 0 -19
91 0 -19
92 17 -9
93 17 -9
94 17 -9
95 17 -9
96 8 -9
97 8 -9
98 8 -9
99 -4 41
100 -4 41
101 -4 41
102 -4 41
103 -13 18
104 -13 18
105 -13 18
106 -9 -6
107 -9 -6
108 -9 -6
109 15 5
110 15 5
111 15 5
112 15 5
113 15 5
114 20 15
115 20 15
116 20 15
117 19 -25
118 19 -25
119 19 -25
120 19 -25
121 19 -25
122 19 -25
123 25 -20
124 25 -20
125 12 31
126 12 31
127 12 31
128 12 31
129 12 31
130 12 31
131 -5 25
132 -5 25
133 -5 25
134 -5 25
135 -5 25
136 -5 25
137 -5 15
138 -5 15
139 -5 15
140 -23 -18
141 -23 -18
142 -23 -18
143 -23 -18
144 -20 -21
145 -20 -21
146 -19 -16
147 -19 -16
148 -19 -16
149 -14 13
150 -14 13
151 -14 13
152 -14 13
153 15 -5
154 15 -5
155 15 -5
156 15 -5
157 16 7
158 16 7
159 15 -20
160 15 -20
161 15 -20
162 15 -20
163 15 -20
164 15 -20
165 13 -14
166 13 -14
167 13 -14
168 13 -14
169 13 -14
170 -23 3
171 -23 3
172 -23 3
173 2 17
174 2 17
175 2 17
176 14 14
177 14 14
178 14 14
179 14 14
180 17 29
181 17 29
182 17 29
183 17 29
184 -15 -9
185 -15 -9
186 5 -5
187 5 -5
188 5 -5
189 5 -5
190 5 -5
191 -14 12
192 -14 12
193 -14 12
194 -14 12
195 -14 12
196 -18 28
197 -18 28
198 -18 28
199 -18 28
200 -18 28
201 -4 27
202 -4 27
203 -4 27
204 17 -2
205 17 -2
206 17 -2
207 17 -2
208 17 -2
209 16 -14
210 16 -14
211 16 -14
212 16 -14
213 16 -14
214 7 6
215 7 6
216 7 6
217 -4 -3
218 -4 -3
219 -4 -3
220 -4 -3
221 -30 -10
222 -30 -10
223 -23 7
224 -23 7
225 -23 7
226 1 -19
227 1 -19
228 17 6
229 17 6
230 17 6
231 17 6
232 -8 -12
233 -8 -12
234 -8 -12
235 -8 -12
236 -8 -12
237 -8 -12
238 -18 -2
239 -18 -2
240 -18 -2
241 -18 -2
242 -22 -22
243 -22 -22
244 22 23
245 22 23
246 22 23
247 22 23
248 22 23
249 22 23
250 27 7
251 27 7
252 27 7
253 27 7
254 7 22
255 7 22
256 7 22
257 7 22
258 7 22
259 -19 22
260 -19 22
261 -19 22
262 -19 22
263 -27 17
264 -27 17
265 -27 17
266 -28 3
267 -28 3
268 -28 3
269 -28 3
270 -28 3
271 -28 3
272 -8 33
273 -8 33
274 -5 13
275 -5 13
276 -5 13
277 8 32
278 8 32
279 23 13
280 23 13
281 23 13
282 23 13
283 23 13
284 23 -8
285 23 -8
286 2 34
287 2 34
288 2 34
289 3 11
290 3 11
291 3 11
292 3 11
293 11 -25
294 11 -25
295 26 -2
296 26 -2
297 26 -2
298 26 -2
299 27 28
300 27 28
301 27 28
302 28 34
303 28 34
304 28 34
305 28 34
306 28 34
307 28 34
308 -3 -13
309 -3 -13
310 10 0
311 10 0
312 10 0
313 10 0
314 10 0
315 10 0
316 24 -20
317 24 -20
318 24 -20
319 -30 -29
320 -30 -29
321 -30 -29
322 -30 -29
323 -25 -18
324 -25 -18
325 -25 -18
326 -14 -25
327 -14 -25
328 -14 -25
329 -30 29
330 -30 29
331 -5 -20
332 -5 -20
333 -5 -20
334 -5 -20
335 4 -25
336 4 -25
337 4 -25
338 4 -25
339 4 -25
340 -3 4
341 -3 4
342 -3 4
343 -3 4
344 -10 -3
345 -10 -3
346 -10 20
347 -10 20
348 13 -7
349 13 -7
350 13 -7
351 13 -7
352 13 -7
353 21 2
354 21 2
355 6 14
356 6 14
357 6 14
358 0 -18
359 0 -18
360 0 -18
361 0 -18
362 20 10
363 20 10
364 20 -15
365 20 -15
366 -20 -5
367 -20 -5
368 -20 -5
369 -20 -5
370 -20 -5
371 -20 -5
372 -10 -5
373 -10 -5
374 -10 -5
375 -10 -5
376 -10 -5
377 -15 15
378 -15 15
379 -15 15
380 -15 15
381 -15 15
382 -25 8
383 -25 8
384 20 25
385 20 25
386 -5 25
387 -5 25
388 -5 25
389 -15 30
390 -15 30
391 -15 30
392 -15 30
393 -15 30
394 15 0
395 15 0
396 15 0
397 15 0
398 15 0
399 -5 -10
400 -5 -10
401 -5 -10
402 -5 -10
403 -20 -25
404 -5 -30
405 -5 -30
406 -5 -30
407 -25 -15
408 -25 -15
409 -25 -15
410 -25 -15
411 -30 -5
412 -30 -5
413 -30 -5
414 -30 -5
415 -15 5
416 -15 5
417 -15 5
418 -15 5
419 -20 25
420 -20 25
421 -20 25
422 10 30
423 10 30
424 10 -15
425 10 -15
426 10 -15
427 10 -15
428 10 -15
429 10 -25
430 10 -25
431 10 -25
432 20 -30
433 20 -30
434 20 -30
435 20 -30
436 20 -30
437 20 -30
438 30 0
439 30 0
440 30 -15
441 30 -15
442 30 -15
443 30 -15
444 10 -5
445 10 -5
446 10 -5
447 10 -5
448 0 5
449 6 2
450 6 2
451 6 2
452 6 2
453 6 2
454 6 2
455 29 7
456 29 7
457 29 7
458 29 7
459 29 7
460 29 7
461 5 25
462 5 25
463 5 25
464 5 25
465 -4 17
466 -4 17
467 -4 17
468 -4 17
469 -4 17
470 -4 17
471 0 34
472 0 34
473 0 34
474 18 17
475 18 17
476 18 17
477 30 20
478 30 20
479 28 30
480 28 30
481 28 30
482 28 30
483 28 30
484 -33 25
485 -33 25
486 -15 -15
487 -15 -15
488 -30 -30
489 -30 -30
490 25 -23
491 25 -23
492 25 -23
493 5 -10
494 5 -10
495 5 -10
496 7 -28
497 7 -28
498 7 -28
499 7 -28
500 7 -28
501 -11 -23
502 -11 -23
503 -12 -32
504 -12 -32
505 -12 -32
506 -24 -21
507 -24 -21
508 -29 3
509 -29 3
510 -29 3
511 -29 3
512 -33 13
513 -33 13
514 -33 13
515 -33 13
516 -27 21
517 -27 21
518 -27 21
519 -27 21
520 -22 17
521 -22 17
522 -22 17
523 -22 17
524 -22 17
525 -22 17
526 -29 33
527 -29 33
528 -29 33
529 -29 33
530 -29 33
531 12 12
532 12 12
533 14 23
534 14 23
535 14 23
536 14 23
537 -8 8
538 -8 8
539 -8 8
540 -8 8
541 -8 8
542 -8 8
543 2 -4
544 2 -4
545 2 -4
546 22 -6
547 22 -6
548 22 -6
549 22 -6
550 22 -6
551 22 -6
552 28 -12
553 28 -12
554 28 -12
555 28 -12
556 28 -12
557 18 -23
558 18 -23
559 18 -23
560 18 -23
561 18 -23
562 -3 -23
563 1 -9
564 1 -9
565 1 -9
566 1 -9
567 -14 -11
568 -14 -11
569 -14 -11
570 -18 -1
571 -18 -1
572 -18 -1
573 -18 -1
574 -18 -1
575 -23 -11
576 -11 23
577 -8 34
578 -8 34
579 -8 34
580 -20 42
581 27 42
582 27 42
583 27 42
584 14 38
585 32 -30
586 32 -30
587 21 4
588 21 4
589 21 4
590 21 4
591 21 4
592 21 4
593 2 12
594 2 12
595 2 12
596 2 12
597 2 12
598 2 21
599 22 33
600 12 -19
601 12 -19
602 9 -18
603 9 -18
604 9 -18
605 9 -18
606 9 -18
607 9 -18
608 11 -22
609 11 -22
610 11 -22
611 14 -24
612 14 -24
613 14 -24
614 14 -24
615 14 -24
616 14 7
617 14 7
618 14 7
619 18 8
620 18 8
621 18 8
622 18 8
623 18 8
624 26 17
625 26 17
626 26 17
627 22 13
628 21 2
629 21 2
630 21 2
631 21 2
632 21 2
633 21 2
634 20 19
635 20 19
636 20 19
637 -20 12
638 -20 12
639 -20 12
640 -20 12
641 -21 2
642 -21 2
643 -21 2
644 -24 -4
645 -24 -4
646 -19 -13
647 -19 -13
648 -31 -17
649 -31 -17
650 -7 -17
651 -7 -17
652 -9 17
653 -9 17
654 -9 17
655 -9 0
656 -9 0
657 -9 0
658 -9 0
659 -9 0
660 -4 32
661 -4 32
662 -4 32
663 -4 32
664 -4 32
665 -4 32
666 -20 -16
667 -20 -16
668 -20 -16
669 -20 -16
670 -20 -16
671 -13 -13
672 -13 -13
673 -13 -13
674 -13 -13
675 -13 -13
676 -13 -13
677 -17 -11
678 -17 -11
679 -17 -11
680 -17 -11
681 -17 -11
682 -9 -8
683 -9 -8
684 -9 -8
685 -9 -8
686 -9 -8
687 -10 -11
688 -10 -11
689 -10 -11
690 -10 -11
691 -13 -8
692 -13 -8
693 -10 -14
694 -10 -14
695 -16 -14
696 -16 -14
697 -16 -14
698 -16 -14
699 -15 -9
700 -15 -9
701 -15 -9
702 -15 -9
703 -17 -17
704 -17 -17
705 -17 -17
DEMAND_SECTION
1 0
2 20
3 5
4 1
5 1
6 10
7 5
8 1
9 1
10 10
11 1
12 1
13 1
14 1
15 20
16 1
17 20
18 5
19 1
20 1
21 1
22 20
23 5
24 1
25 1
26 10
27 5
28 1
29 1
30 1
31 1
32 10
33 1
34 1
35 10
36 1
37 1
38 1
39 1
40 10
41 20
42 5
43 1
44 10
45 5
46 1
47 1
48 10
49 5
50 1
51 1
52 1
53 1
54 20
55 20
56 1
57 1
58 1
59 1
60 10
61 5
62 10
63 1
64 20
65 20
66 5
67 1
68 1
69 20
70 10
71 1
72 1
73 20
74 1
75 1
76 20
77 1
78 1
79 1
80 20
81 1
82 20
83 5
84 20
85 1
86 1
87 1
88 1
89 10
90 20
91 5
92 10
93 1
94 1
95 1
96 10
97 1
98 1
99 20
100 5
101 1
102 1
103 20
104 5
105 1
106 20
107 5
108 1
109 10
110 1
111 1
112 1
113 1
114 20
115 5
116 1
117 10
118 5
119 1
120 1
121 1
122 1
123 20
124 5
125 10
126 5
127 1
128 1
129 1
130 1
131 10
132 5
133 1
134 1
135 1
136 1
137 20
138 5
139 1
140 10
141 1
142 1
143 1
144 10
145 1
146 20
147 1
148 1
149 20
150 1
151 1
152 1
153 20
154 5
155 1
156 1
157 10
158 5
159 10
160 5
161 1
162 1
163 1
164 1
165 10
166 5
167 1
168 1
169 1
170 20
171 5
172 1
173 20
174 1
175 1
176 20
177 1
178 1
179 1
180 20
181 1
182 1
183 1
184 10
185 1
186 20
187 5
188 1
189 1
190 1
191 20
192 1
193 1
194 1
195 1
196 20
197 1
198 1
199 1
200 1
201 10
202 5
203 1
204 20
205 1
206 1
207 1
208 1
209 10
210 5
211 1
212 1
213 1
214 10
215 5
216 1
217 20
218 5
219 1
220 1
221 10
222 5
223 10
224 5
225 1
226 10
227 5
228 10
229 5
230 1
231 1
232 10
233 5
234 1
235 1
236 1
237 1
238 20
239 5
240 1
241 1
242 10
243 1
244 20
245 5
246 1
247 1
248 1
249 1
250 20
251 5
252 1
253 1
254 20
255 5
256 1
257 1
258 1
259 20
260 5
261 1
262 1
263 20
264 5
265 1
266 20
267 5
268 1
269 1
270 1
271 1
272 10
273 1
274 10
275 5
276 1
277 20
278 1
279 20
280 1
281 1
282 1
283 1
284 20
285 1
286 20
287 5
288 1
289 20
290 1
291 1
292 1
293 10
294 5
295 20
296 1
297 1
298 1
299 20
300 1
301 1
302 20
303 5
304 1
305 1
306 1
307 1
308 20
309 5
310 20
311 5
312 1
313 1
314 1
315 1
316 20
317 5
318 1
319 20
320 5
321 1
322 1
323 10
324 1
325 1
326 20
327 5
328 1
329 20
330 1
331 10
332 1
333 1
334 1
335 20
336 5
337 1
338 1
339 1
340 20
341 1
342 1
343 1
344 20
345 5
346 20
347 5
348 10
349 5
350 1
351 1
352 1
353 20
354 5
355 10
356 1
357 1
358 20
359 1
360 1
361 1
362 20
363 5
364 20
365 5
366 20
367 5
368 1
369 1
370 1
371 1
372 10
373 5
374 1
375 1
376 1
377 10
378 1
379 1
380 1
381 1
382 10
383 1
384 20
385 1
386 10
387 5
388 1
389 20
390 5
391 1
392 1
393 1
394 20
395 5
396 1
397 1
398 1
399 20
400 1
401 1
402 1
403 10
404 10
405 5
406 1
407 20
408 1
409 1
410 1
411 10
412 5
413 1
414 1
415 10
416 5
417 1
418 1
419 20
420 5
421 1
422 20
423 5
424 20
425 5
426 1
427 1
428 1
429 10
430 5
431 1
432 10
433 5
434 1
435 1
436 1
437 1
438 10
439 1
440 10
441 5
442 1
443 1
444 20
445 1
446 1
447 1
448 20
449 20
450 5
451 1
452 1
453 1
454 1
455 10
456 5
457 1
458 1
459 1
460 1
461 20
462 1
463 1
464 1
465 10
466 5
467 1
468 1
469 1
470 1
471 20
472 1
473 1
474 20
475 1
476 1
477 20
478 5
479 20
480 1
481 1
482 1
483 1
484 20
485 5
486 20
487 1
488 20
489 1
490 10
491 5
492 1
493 10
494 5
495 1
496 20
497 5
498 1
499 1
500 1
501 20
502 1
503 20
504 1
505 1
506 20
507 1
508 10
509 1
510 1
511 1
512 20
513 1
514 1
515 1
516 20
517 1
518 1
519 1
520 20
521 5
522 1
523 1
524 1
525 1
526 10
527 1
528 1
529 1
530 1
531 20
532 1
533 10
534 5
535 1
536 1
537 10
538 5
539 1
540 1
541 1
542 1
543 10
544 1
545 1
546 20
547 5
548 1
549 1
550 1
551 1
552 10
553 5
554 1
555 1
556 1
557 10
558 5
559 1
560 1
561 1
562 10
563 20
564 1
565 1
566 1
567 10
568 1
569 1
570 10
571 1
572 1
573 1
574 1
575 20
576 10
577 10
578 1
579 1
580 10
581 10
582 1
583 1
584 10
585 20
586 5
587 20
588 5
589 1
590 1
591 1
592 1
593 10
594 1
595 1
596 1
597 1
598 10
599 10
600 20
601 5
602 10
603 5
604 1
605 1
606 1
607 1
608 20
609 1
610 1
611 10
612 1
613 1
614 1
615 1
616 20
617 1
618 1
619 10
620 5
621 1
622 1
623 1
624 20
625 1
626 1
627 20
628 10
629 5
630 1
631 1
632 1
633 1
634 20
635 5
636 1
637 20
638 1
639 1
640 1
641 10
642 5
643 1
644 20
645 1
646 10
647 5
648 10
649 5
650 20
651 5
652 20
653 5
654 1
655 10
656 1
657 1
658 1
659 1
660 10
661 5
662 1
663 1
664 1
665 1
666 10
667 5
668 1
669 1
670 1
671 10
672 5
673 1
674 1
675 1
676 1
677 20
678 5
679 1
680 1
681 1
682 20
683 5
684 1
685 1
686 1
687 10
688 1
689 1
690 1
691 10
692 1
693 20
694 1
695 20
696 5
697 1
698 1
699 20
700 1
701 1
702 1
703 10
704 5
705 1
DEPOT_SECTION
1
-1
EOF