Normalized Data/p10_1030_tsplib0_normalized_split0.sol
704 -4 673 674 485 695 696 697 694 568 567 566 183 698 699 700 701 184 -14 313 309 310 15 314 311 396 397 393 395 394 448 452 450 451 -21 23 24 -22 -29 27 28 635 634 633 243 245 248 244 383 384 532 535 533 534 -39 286 285 287 470 471 472 663 659 660 662 661 664 576 577 578 271 272 -60 59 642 641 640 571 572 569 573 570 240 237 239 238 343 344 -62 61 274 273 275 44 46 43 45 172 174 595 592 594 290 289 291 288 -70 71 69 292 293 429 428 430 495 496 499 497 498 335 334 336 338 337 -85 84 87 86 83 26 30 25 175 177 178 176 531 530 214 213 215 -100 98 101 99 579 527 525 529 528 526 328 329 484 483 523 521 522 -102 103 104 651 653 652 467 465 468 469 466 464 137 136 138 -111 109 110 229 65 66 64 67 476 477 53 623 625 624 616 -112 108 618 621 619 31 361 362 33 32 156 157 617 615 -131 132 386 130 385 133 135 134 387 201 202 200 38 37 35 34 36 575 346 345 -144 143 402 325 326 327 504 502 503 404 403 405 561 331 -155 152 154 153 283 549 550 548 546 545 547 206 207 204 205 203 -159 162 161 163 158 160 558 559 556 557 560 117 120 116 118 119 121 435 434 432 433 436 431 610 614 612 613 611 542 -171 169 170 266 270 265 267 269 268 507 510 508 509 381 382 222 416 414 -179 180 182 181 41 40 42 583 125 126 127 124 128 129 461 462 460 -186 185 443 95 494 493 492 6 7 8 562 565 564 -188 189 187 96 97 425 423 427 424 426 599 600 607 608 609 601 604 602 603 605 606 -212 209 316 315 122 123 56 58 54 55 57 347 350 351 348 446 444 445 -217 219 218 216 681 684 683 685 682 105 107 106 371 375 374 372 373 -223 224 80 79 512 511 513 514 262 263 264 636 639 637 638 -230 227 228 591 590 587 588 589 586 352 628 630 627 353 629 632 631 88 312 -241 242 505 506 487 488 319 321 318 320 648 647 -247 246 299 298 300 478 480 482 479 481 304 302 305 303 301 306 580 582 581 598 -249 252 250 251 456 458 454 455 457 459 437 438 51 48 52 49 50 47 296 295 297 294 -259 420 419 418 63 517 515 516 518 524 519 520 -261 258 260 195 199 196 197 198 82 81 390 391 392 388 389 -284 554 552 555 551 553 440 442 439 441 68 584 585 490 489 491 317 -307 308 358 359 357 360 89 90 226 225 5 563 -332 330 333 73 72 74 500 501 649 650 398 -339 342 341 340 447 -349 92 93 91 94 364 363 20 17 19 18 16 208 211 210 165 166 164 167 168 544 543 -356 354 355 256 254 257 255 253 422 421 277 276 463 597 173 596 593 -367 368 370 365 77 76 78 75 221 220 412 413 411 410 643 644 -400 399 401 236 235 234 233 231 232 692 693 670 671 3 672 1 675 2 686 687 689 688 -417 415 9 11 13 10 12 190 193 194 191 192 151 150 149 148 380 378 377 376 379 541 539 538 540 536 537 -449 453 620 622 282 281 279 278 280 626 115 113 114 474 473 475 -486 704 703 702 147 145 146 667 669 666 645 646 679 676 677 680 678 690 691 -658 657 655 656 654 366 369 574 408 409 407 406 323 322 324 140 139 141 142 665 668 0 





OBJ=
2507.860
BEST_KNOWN=
0.000